NAME : Instance 29
COMMENT : Comment 29
TYPE : TSP
DIMENSION: 30
EDGE_WEIGHT_TYPE : EUC_2D
NODE_COORD_SECTION
  1 1829 478
  2 150 884
  3 834 1117
  4 156 937
  5 792 1017
  6 1847 1121
  7 953 1885
  8 574 449
  9 1623 597
  10 1415 1820
  11 1765 1345
  12 33 1503
  13 96 1537
  14 1816 1096
  15 1952 377
  16 1733 1511
  17 535 968
  18 1175 1911
  19 1188 44
  20 837 922
  21 1747 973
  22 1551 1934
  23 70 815
  24 1121 1239
  25 1998 1563
  26 322 1516
  27 1085 1827
  28 1727 1411
  29 1241 616
  30 644 1568
EOF
